
Gurobi 10.0.1 (win64) logging started Tue Mar 21 20:43:10 2023

Set parameter LogFile to value "logFiles/N-1L-90D/N-1L-6U-25F-18V-90D-c-varprod.log"
Gurobi Optimizer version 10.0.1 build v10.0.1rc0 (win64)

CPU model: Intel(R) Core(TM) i7-10700 CPU @ 2.90GHz, instruction set [SSE2|AVX|AVX2]
Thread count: 8 physical cores, 16 logical processors, using up to 16 threads

Optimize a model with 20704 rows, 155161 columns and 1020312 nonzeros
Model fingerprint: 0xf56382f6
Variable types: 744 continuous, 154417 integer (154417 binary)
Coefficient statistics:
  Matrix range     [1e+00, 2e+05]
  Objective range  [4e+01, 2e+07]
  Bounds range     [1e+00, 1e+00]
  RHS range        [1e+00, 2e+06]
Presolve removed 14310 rows and 34827 columns
Presolve time: 1.45s
Presolved: 6394 rows, 120334 columns, 715763 nonzeros
Variable types: 756 continuous, 119578 integer (119578 binary)
Deterministic concurrent LP optimizer: primal simplex, dual simplex, and barrier
Showing barrier log only...

Root barrier log...

Ordering time: 0.21s

Barrier statistics:
 AA' NZ     : 2.835e+05
 Factor NZ  : 8.098e+05 (roughly 60 MB of memory)
 Factor Ops : 3.040e+08 (less than 1 second per iteration)
 Threads    : 5

                  Objective                Residual
Iter       Primal          Dual         Primal    Dual     Compl     Time
   0  -1.70777651e+15  8.44840699e+11  7.68e+08 6.57e+05  1.01e+11     3s
   1  -4.19361053e+14  1.07141239e+12  1.91e+08 3.26e+05  2.52e+10     3s
   2  -1.80321945e+13  8.83631053e+11  8.33e+06 1.63e-09  1.11e+09     3s
   3  -1.40539278e+12  4.44534737e+11  6.49e+05 1.63e-09  8.89e+07     3s
   4  -1.24949004e+11  1.80061590e+11  5.78e+04 4.42e-08  8.48e+06     3s
   5  -6.40443520e+10  1.22605328e+11  2.98e+04 2.64e-08  4.41e+06     3s
   6  -4.83307130e+10  1.07208606e+11  2.26e+04 2.03e-08  3.31e+06     3s
   7  -2.85284190e+10  9.27692181e+10  1.35e+04 1.27e-08  2.03e+06     3s
   8  -1.30420420e+10  5.70771014e+10  6.35e+03 6.52e-09  8.97e+05     3s
   9  -3.48100670e+09  3.27326336e+10  1.97e+03 1.63e-09  3.02e+05     3s
  10  -3.11728834e+08  1.64743913e+10  5.31e+02 7.92e-09  1.02e+05     3s
  11  -5.51980160e+07  1.27775890e+10  4.16e+02 9.78e-09  7.62e+04     4s
  12   6.75949394e+08  7.02464458e+09  8.83e+01 7.22e-09  3.06e+04     4s
  13   7.90313784e+08  2.30518570e+09  3.87e+01 4.55e-09  8.06e+03     4s
  14   8.23709899e+08  1.82761995e+09  2.48e+01 3.68e-09  5.35e+03     4s
  15   8.31013970e+08  1.79448871e+09  2.17e+01 4.68e-09  5.03e+03     4s
  16   8.40839492e+08  1.47256004e+09  1.75e+01 4.31e-09  3.45e+03     4s
  17   8.46951043e+08  1.35617888e+09  1.48e+01 3.78e-09  2.80e+03     4s
  18   8.48939566e+08  1.28761249e+09  1.38e+01 4.42e-09  2.47e+03     4s
  19   8.66487640e+08  1.14615793e+09  5.59e+00 3.60e-09  1.41e+03     4s
  20   8.73613593e+08  9.93947572e+08  2.37e+00 2.48e-09  5.67e+02     4s
  21   8.75749678e+08  9.39978329e+08  1.69e+00 2.04e-09  2.96e+02     4s
  22   8.78824017e+08  9.32240614e+08  9.90e-01 1.76e-09  2.37e+02     5s
  23   8.79599566e+08  9.19109871e+08  8.81e-01 1.42e-09  1.74e+02     5s
  24   8.80804402e+08  9.12017785e+08  7.46e-01 1.36e-09  1.36e+02     5s
  25   8.82269663e+08  9.07110886e+08  5.92e-01 1.14e-09  1.07e+02     5s
  26   8.84671815e+08  9.00668844e+08  3.58e-01 1.11e-09  6.78e+01     5s
  27   8.85751391e+08  8.97563053e+08  3.07e-01 1.02e-09  4.98e+01     5s
  28   8.86876289e+08  8.96021072e+08  2.39e-01 9.22e-10  3.83e+01     5s
  29   8.87793594e+08  8.94773739e+08  1.88e-01 1.10e-09  2.91e+01     5s
  30   8.88524529e+08  8.94130827e+08  1.44e-01 9.61e-10  2.33e+01     5s
  31   8.88997084e+08  8.93674732e+08  1.20e-01 9.32e-10  1.94e+01     5s
  32   8.89589412e+08  8.93225427e+08  8.95e-02 1.00e-09  1.51e+01     6s
  33   8.90069522e+08  8.92761762e+08  6.70e-02 9.34e-10  1.11e+01     6s
  34   8.90517331e+08  8.92586747e+08  4.88e-02 8.85e-10  8.55e+00     6s
  35   8.90947744e+08  8.92417546e+08  3.23e-02 9.35e-10  6.07e+00     6s
  36   8.91186669e+08  8.92281202e+08  2.50e-02 1.25e-09  4.52e+00     6s
  37   8.91510166e+08  8.92094152e+08  1.39e-02 9.69e-10  2.41e+00     6s
  38   8.91647899e+08  8.92057701e+08  9.44e-03 9.68e-10  1.69e+00     6s
  39   8.91793883e+08  8.92035949e+08  4.75e-03 1.32e-09  1.00e+00     6s
  40   8.91856846e+08  8.91982796e+08  2.82e-03 7.74e-10  5.20e-01     6s
  41   8.91930464e+08  8.91971861e+08  5.82e-04 9.53e-10  1.72e-01     7s
  42   8.91944180e+08  8.91965392e+08  2.00e-04 1.10e-09  8.80e-02     7s
  43   8.91950157e+08  8.91962439e+08  2.56e-05 9.95e-10  5.11e-02     7s
  44   8.91951155e+08  8.91953019e+08  3.73e-06 1.36e-09  7.76e-03     7s
  45   8.91951474e+08  8.91951900e+08  8.88e-08 1.05e-09  1.77e-03     7s
  46   8.91951477e+08  8.91951690e+08  3.92e-08 2.20e-09  8.87e-04     7s
  47   8.91951481e+08  8.91951516e+08  6.24e-09 4.12e-09  1.45e-04     7s
  48   8.91951483e+08  8.91951483e+08  7.55e-10 4.11e-09  1.16e-06     7s
  49   8.91951483e+08  8.91951483e+08  8.73e-10 3.85e-09  6.00e-11     7s

Barrier solved model in 49 iterations and 7.39 seconds (6.37 work units)
Optimal objective 8.91951483e+08


Root crossover log...

    4343 DPushes remaining with DInf 0.0000000e+00                 7s
       0 DPushes remaining with DInf 0.0000000e+00                 8s

     540 PPushes remaining with PInf 1.9026234e-06                 8s
       0 PPushes remaining with PInf 0.0000000e+00                 8s

  Push phase complete: Pinf 0.0000000e+00, Dinf 3.3548531e-08      8s


Root simplex log...

Iteration    Objective       Primal Inf.    Dual Inf.      Time
    4861    8.9195148e+08   0.000000e+00   0.000000e+00      8s
Concurrent spin time: 0.01s

Solved with barrier
    4861    8.9195148e+08   0.000000e+00   0.000000e+00      8s

Root relaxation: objective 8.919515e+08, 4861 iterations, 5.83 seconds (2.76 work units)

    Nodes    |    Current Node    |     Objective Bounds      |     Work
 Expl Unexpl |  Obj  Depth IntInf | Incumbent    BestBd   Gap | It/Node Time

     0     0 8.9195e+08    0  241          - 8.9195e+08      -     -    8s
H    0     0                    8.499154e+08 8.9195e+08  4.95%     -    8s
H    0     0                    8.672804e+08 8.9195e+08  2.84%     -   15s
H    0     0                    8.786193e+08 8.9195e+08  1.52%     -   16s
H    0     0                    8.787091e+08 8.9195e+08  1.51%     -   17s
     0     0 8.9192e+08    0  225 8.7871e+08 8.9192e+08  1.50%     -   19s
H    0     0                    8.820272e+08 8.9192e+08  1.12%     -   30s
H    0     0                    8.821935e+08 8.9192e+08  1.10%     -   42s
H    0     0                    8.822824e+08 8.9192e+08  1.09%     -   42s
H    0     0                    8.825433e+08 8.9192e+08  1.06%     -   45s
H    0     0                    8.853220e+08 8.9192e+08  0.75%     -   45s
     0     0 8.9190e+08    0  225 8.8532e+08 8.9190e+08  0.74%     -   45s
     0     0 8.9190e+08    0  234 8.8532e+08 8.9190e+08  0.74%     -   46s
     0     0 8.9190e+08    0  204 8.8532e+08 8.9190e+08  0.74%     -   46s
     0     0 8.9190e+08    0  204 8.8532e+08 8.9190e+08  0.74%     -   47s
     0     0 8.9190e+08    0  208 8.8532e+08 8.9190e+08  0.74%     -   47s
     0     0 8.9190e+08    0  204 8.8532e+08 8.9190e+08  0.74%     -   47s
     0     0 8.9190e+08    0  204 8.8532e+08 8.9190e+08  0.74%     -   48s
     0     0 8.9190e+08    0  205 8.8532e+08 8.9190e+08  0.74%     -   48s
     0     0 8.9190e+08    0  228 8.8532e+08 8.9190e+08  0.74%     -   49s
     0     0 8.9190e+08    0  228 8.8532e+08 8.9190e+08  0.74%     -   49s
     0     0 8.9190e+08    0  229 8.8532e+08 8.9190e+08  0.74%     -   49s
     0     0 8.9190e+08    0  238 8.8532e+08 8.9190e+08  0.74%     -   50s
     0     0 8.9190e+08    0  240 8.8532e+08 8.9190e+08  0.74%     -   50s
     0     0 8.9190e+08    0  236 8.8532e+08 8.9190e+08  0.74%     -   51s
     0     0 8.9190e+08    0  235 8.8532e+08 8.9190e+08  0.74%     -   52s
     0     0 8.9190e+08    0  235 8.8532e+08 8.9190e+08  0.74%     -   52s
     0     0 8.9190e+08    0  237 8.8532e+08 8.9190e+08  0.74%     -   52s
     0     0 8.9190e+08    0  244 8.8532e+08 8.9190e+08  0.74%     -   53s
     0     0 8.9190e+08    0  241 8.8532e+08 8.9190e+08  0.74%     -   54s
     0     0 8.9190e+08    0  247 8.8532e+08 8.9190e+08  0.74%     -   55s
     0     0 8.9190e+08    0  246 8.8532e+08 8.9190e+08  0.74%     -   55s
     0     0 8.9190e+08    0  227 8.8532e+08 8.9190e+08  0.74%     -   56s
     0     0 8.9190e+08    0  230 8.8532e+08 8.9190e+08  0.74%     -   56s
     0     0 8.9190e+08    0  215 8.8532e+08 8.9190e+08  0.74%     -   57s
     0     0 8.9190e+08    0  215 8.8532e+08 8.9190e+08  0.74%     -   58s
     0     2 8.9186e+08    0  215 8.8532e+08 8.9186e+08  0.74%     -   67s
     7    16 8.9186e+08    3  238 8.8532e+08 8.9186e+08  0.74%   358   71s
    23    32 8.9186e+08    4  224 8.8532e+08 8.9186e+08  0.74%   211   77s
    39    48 8.9186e+08    5  235 8.8532e+08 8.9186e+08  0.74%   193   81s
    56    77 8.9186e+08    6  244 8.8532e+08 8.9186e+08  0.74%   177   89s
    76    85 8.9186e+08    7  242 8.8532e+08 8.9186e+08  0.74%   155  103s
H   81    85                    8.855455e+08 8.9186e+08  0.71%   154  103s
H   84    93                    8.859744e+08 8.9186e+08  0.66%   152  164s
H   85    93                    8.859841e+08 8.9186e+08  0.66%   155  164s
H   87    93                    8.863649e+08 8.9186e+08  0.62%   156  164s
    92   122 8.9186e+08    8  213 8.8636e+08 8.9186e+08  0.62%   153  189s
   121   297 8.9186e+08   11  232 8.8636e+08 8.9186e+08  0.62%   140  239s
   296   789 8.9186e+08   25  231 8.8636e+08 8.9186e+08  0.62%   142  340s
H  788  1516                    8.863649e+08 8.9186e+08  0.62%   121  443s
H  918  1516                    8.863880e+08 8.9186e+08  0.62%   124  443s
H  983  1516                    8.864205e+08 8.9186e+08  0.61%   126  443s
H 1515  2221                    8.864534e+08 8.9186e+08  0.61%   111  512s
H 1579  2221                    8.864543e+08 8.9186e+08  0.61%   111  512s
H 1697  2221                    8.865413e+08 8.9186e+08  0.60%   113  512s
H 1855  2221                    8.865711e+08 8.9186e+08  0.60%   110  512s
  2226  3339 8.9179e+08  157  127 8.8657e+08 8.9186e+08  0.60%  96.8  586s
  3344  3398 8.9166e+08  252   85 8.8657e+08 8.9186e+08  0.60%  82.1  600s
H 3363  3398                    8.866916e+08 8.9186e+08  0.58%  81.9  600s
H 3373  3398                    8.866928e+08 8.9186e+08  0.58%  81.7  600s

Cutting planes:
  Cover: 9
  Implied bound: 6
  MIR: 9
  Flow cover: 22
  GUB cover: 1
  Zero half: 1
  RLT: 7
  Relax-and-lift: 1

Explored 3403 nodes (290831 simplex iterations) in 600.82 seconds (466.27 work units)
Thread count was 16 (of 16 available processors)

Solution count 10: 8.86693e+08 8.86692e+08 8.86571e+08 ... 8.86365e+08

Time limit reached
Best objective 8.866928110361e+08, best bound 8.918638723500e+08, gap 0.5832%
